width,height
25,10
20,8
17,2
19,3
19,9
7,3
24,2
13,8
3,3
1,3
6,3
20,7
25,8
5,5
6,5
22,9
21,5
15,9
8,1
9,2
8,2
13,2
11,2
15,5
22,10
17,6
23,10
6,1
14,6
11,9
13,9
8,5
3,3
18,9
18,7
16,3
19,7
7,5
14,2
4,6
23,3
20,1
4,3
19,9
25,6
12,3
18,6
8,6
8,6
23,10
14,6
15,9
23,7
14,8
21,5
10,4
23,1
24,8
3,8
25,7
14,2
22,7
20,2
16,9
17,10
11,4
11,7
14,2
2,7
20,9
16,10
20,7
15,8
1,7
21,1
4,7
13,9
4,4
22,4
22,4
19,10
1,6
12,1
10,10
15,3
2,7
8,2
16,9
8,5
19,7
12,9
22,5
1,10
18,3
11,9
2,6
12,2
21,2
8,8
6,5
12,3
